(set-info :category "industrial")
(set-info :status sat)
(declare-fun x02 () (_ BitVec 8))
(declare-fun x04 () (_ BitVec 8))
(declare-fun x05 () (_ BitVec 8))
(declare-fun x06 () (_ BitVec 8))
(declare-fun x07 () (_ BitVec 8))
(declare-fun x08 () (_ BitVec 8))
(declare-fun x10 () (_ BitVec 8))
(declare-fun x11 () (_ BitVec 8))
(declare-fun x12 () (_ BitVec 8))
(declare-fun x13 () (_ BitVec 8))
(declare-fun x14 () (_ BitVec 8))
(declare-fun x16 () (_ BitVec 8))
(declare-fun x18 () (_ BitVec 8))
(declare-fun x20 () (_ BitVec 8))
(declare-fun x21 () (_ BitVec 8))
(declare-fun x22 () (_ BitVec 8))
(declare-fun x23 () (_ BitVec 8))
(declare-fun x24 () (_ BitVec 8))
(declare-fun x25 () (_ BitVec 8))
(declare-fun x26 () (_ BitVec 8))
(declare-fun x28 () (_ BitVec 8))
(declare-fun x30 () (_ BitVec 8))
(declare-fun x31 () (_ BitVec 8))
(declare-fun x32 () (_ BitVec 8))
(declare-fun x34 () (_ BitVec 8))
(declare-fun x35 () (_ BitVec 8))
(declare-fun x36 () (_ BitVec 8))
(declare-fun x38 () (_ BitVec 8))
(declare-fun x40 () (_ BitVec 8))
(declare-fun x41 () (_ BitVec 8))
(declare-fun x42 () (_ BitVec 8))
(declare-fun x43 () (_ BitVec 8))
(declare-fun x47 () (_ BitVec 8))
(declare-fun x50 () (_ BitVec 8))
(declare-fun x52 () (_ BitVec 8))
(declare-fun x53 () (_ BitVec 8))
(declare-fun x54 () (_ BitVec 8))
(declare-fun x56 () (_ BitVec 8))
(declare-fun x57 () (_ BitVec 8))
(declare-fun x58 () (_ BitVec 8))
(declare-fun x60 () (_ BitVec 8))
(declare-fun x64 () (_ BitVec 8))
(declare-fun x65 () (_ BitVec 8))
(declare-fun x66 () (_ BitVec 8))
(declare-fun x67 () (_ BitVec 8))
(declare-fun x68 () (_ BitVec 8))
(declare-fun x70 () (_ BitVec 8))
(declare-fun x71 () (_ BitVec 8))
(declare-fun x74 () (_ BitVec 8))
(declare-fun x75 () (_ BitVec 8))
(declare-fun x77 () (_ BitVec 8))
(declare-fun x78 () (_ BitVec 8))
(declare-fun x81 () (_ BitVec 8))
(declare-fun x82 () (_ BitVec 8))
(declare-fun x83 () (_ BitVec 8))
(declare-fun x84 () (_ BitVec 8))
(declare-fun x85 () (_ BitVec 8))
(declare-fun x86 () (_ BitVec 8))
(declare-fun x87 () (_ BitVec 8))
(assert (bvult x02 (_ bv9 8)))
(assert (bvult x04 (_ bv9 8)))
(assert (bvult x05 (_ bv9 8)))
(assert (bvult x06 (_ bv9 8)))
(assert (bvult x07 (_ bv9 8)))
(assert (bvult x08 (_ bv9 8)))
(assert (bvult x10 (_ bv9 8)))
(assert (bvult x11 (_ bv9 8)))
(assert (bvult x12 (_ bv9 8)))
(assert (bvult x13 (_ bv9 8)))
(assert (bvult x14 (_ bv9 8)))
(assert (bvult x16 (_ bv9 8)))
(assert (bvult x18 (_ bv9 8)))
(assert (bvult x20 (_ bv9 8)))
(assert (bvult x21 (_ bv9 8)))
(assert (bvult x22 (_ bv9 8)))
(assert (bvult x23 (_ bv9 8)))
(assert (bvult x24 (_ bv9 8)))
(assert (bvult x25 (_ bv9 8)))
(assert (bvult x26 (_ bv9 8)))
(assert (bvult x28 (_ bv9 8)))
(assert (bvult x30 (_ bv9 8)))
(assert (bvult x31 (_ bv9 8)))
(assert (bvult x32 (_ bv9 8)))
(assert (bvult x34 (_ bv9 8)))
(assert (bvult x35 (_ bv9 8)))
(assert (bvult x36 (_ bv9 8)))
(assert (bvult x38 (_ bv9 8)))
(assert (bvult x40 (_ bv9 8)))
(assert (bvult x41 (_ bv9 8)))
(assert (bvult x42 (_ bv9 8)))
(assert (bvult x43 (_ bv9 8)))
(assert (bvult x47 (_ bv9 8)))
(assert (bvult x50 (_ bv9 8)))
(assert (bvult x52 (_ bv9 8)))
(assert (bvult x53 (_ bv9 8)))
(assert (bvult x54 (_ bv9 8)))
(assert (bvult x56 (_ bv9 8)))
(assert (bvult x57 (_ bv9 8)))
(assert (bvult x58 (_ bv9 8)))
(assert (bvult x60 (_ bv9 8)))
(assert (bvult x64 (_ bv9 8)))
(assert (bvult x65 (_ bv9 8)))
(assert (bvult x66 (_ bv9 8)))
(assert (bvult x67 (_ bv9 8)))
(assert (bvult x68 (_ bv9 8)))
(assert (bvult x70 (_ bv9 8)))
(assert (bvult x71 (_ bv9 8)))
(assert (bvult x74 (_ bv9 8)))
(assert (bvult x75 (_ bv9 8)))
(assert (bvult x77 (_ bv9 8)))
(assert (bvult x78 (_ bv9 8)))
(assert (bvult x81 (_ bv9 8)))
(assert (bvult x82 (_ bv9 8)))
(assert (bvult x83 (_ bv9 8)))
(assert (bvult x84 (_ bv9 8)))
(assert (bvult x85 (_ bv9 8)))
(assert (bvult x86 (_ bv9 8)))
(assert (bvult x87 (_ bv9 8)))
(assert (not (= (_ bv4 8) (_ bv9 8))))
(assert (not (= (_ bv4 8) x02)))
(assert (not (= (_ bv4 8) (_ bv6 8))))
(assert (not (= (_ bv4 8) x04)))
(assert (not (= (_ bv4 8) x05)))
(assert (not (= (_ bv4 8) x06)))
(assert (not (= (_ bv4 8) x07)))
(assert (not (= (_ bv4 8) x08)))
(assert (not (= (_ bv9 8) x02)))
(assert (not (= (_ bv9 8) (_ bv6 8))))
(assert (not (= (_ bv9 8) x04)))
(assert (not (= (_ bv9 8) x05)))
(assert (not (= (_ bv9 8) x06)))
(assert (not (= (_ bv9 8) x07)))
(assert (not (= (_ bv9 8) x08)))
(assert (not (= x02 (_ bv6 8))))
(assert (not (= x02 x04)))
(assert (not (= x02 x05)))
(assert (not (= x02 x06)))
(assert (not (= x02 x07)))
(assert (not (= x02 x08)))
(assert (not (= (_ bv6 8) x04)))
(assert (not (= (_ bv6 8) x05)))
(assert (not (= (_ bv6 8) x06)))
(assert (not (= (_ bv6 8) x07)))
(assert (not (= (_ bv6 8) x08)))
(assert (not (= x04 x05)))
(assert (not (= x04 x06)))
(assert (not (= x04 x07)))
(assert (not (= x04 x08)))
(assert (not (= x05 x06)))
(assert (not (= x05 x07)))
(assert (not (= x05 x08)))
(assert (not (= x06 x07)))
(assert (not (= x06 x08)))
(assert (not (= x07 x08)))
(assert (not (= x10 x11)))
(assert (not (= x10 x12)))
(assert (not (= x10 x13)))
(assert (not (= x10 x14)))
(assert (not (= x10 (_ bv4 8))))
(assert (not (= x10 x16)))
(assert (not (= x10 (_ bv8 8))))
(assert (not (= x10 x18)))
(assert (not (= x11 x12)))
(assert (not (= x11 x13)))
(assert (not (= x11 x14)))
(assert (not (= x11 (_ bv4 8))))
(assert (not (= x11 x16)))
(assert (not (= x11 (_ bv8 8))))
(assert (not (= x11 x18)))
(assert (not (= x12 x13)))
(assert (not (= x12 x14)))
(assert (not (= x12 (_ bv4 8))))
(assert (not (= x12 x16)))
(assert (not (= x12 (_ bv8 8))))
(assert (not (= x12 x18)))
(assert (not (= x13 x14)))
(assert (not (= x13 (_ bv4 8))))
(assert (not (= x13 x16)))
(assert (not (= x13 (_ bv8 8))))
(assert (not (= x13 x18)))
(assert (not (= x14 (_ bv4 8))))
(assert (not (= x14 x16)))
(assert (not (= x14 (_ bv8 8))))
(assert (not (= x14 x18)))
(assert (not (= (_ bv4 8) x16)))
(assert (not (= (_ bv4 8) (_ bv8 8))))
(assert (not (= (_ bv4 8) x18)))
(assert (not (= x16 (_ bv8 8))))
(assert (not (= x16 x18)))
(assert (not (= (_ bv8 8) x18)))
(assert (not (= x20 x21)))
(assert (not (= x20 x22)))
(assert (not (= x20 x23)))
(assert (not (= x20 x24)))
(assert (not (= x20 x25)))
(assert (not (= x20 x26)))
(assert (not (= x20 (_ bv5 8))))
(assert (not (= x20 x28)))
(assert (not (= x21 x22)))
(assert (not (= x21 x23)))
(assert (not (= x21 x24)))
(assert (not (= x21 x25)))
(assert (not (= x21 x26)))
(assert (not (= x21 (_ bv5 8))))
(assert (not (= x21 x28)))
(assert (not (= x22 x23)))
(assert (not (= x22 x24)))
(assert (not (= x22 x25)))
(assert (not (= x22 x26)))
(assert (not (= x22 (_ bv5 8))))
(assert (not (= x22 x28)))
(assert (not (= x23 x24)))
(assert (not (= x23 x25)))
(assert (not (= x23 x26)))
(assert (not (= x23 (_ bv5 8))))
(assert (not (= x23 x28)))
(assert (not (= x24 x25)))
(assert (not (= x24 x26)))
(assert (not (= x24 (_ bv5 8))))
(assert (not (= x24 x28)))
(assert (not (= x25 x26)))
(assert (not (= x25 (_ bv5 8))))
(assert (not (= x25 x28)))
(assert (not (= x26 (_ bv5 8))))
(assert (not (= x26 x28)))
(assert (not (= (_ bv5 8) x28)))
(assert (not (= x30 x31)))
(assert (not (= x30 x32)))
(assert (not (= x30 (_ bv2 8))))
(assert (not (= x30 x34)))
(assert (not (= x30 x35)))
(assert (not (= x30 x36)))
(assert (not (= x30 (_ bv1 8))))
(assert (not (= x30 x38)))
(assert (not (= x31 x32)))
(assert (not (= x31 (_ bv2 8))))
(assert (not (= x31 x34)))
(assert (not (= x31 x35)))
(assert (not (= x31 x36)))
(assert (not (= x31 (_ bv1 8))))
(assert (not (= x31 x38)))
(assert (not (= x32 (_ bv2 8))))
(assert (not (= x32 x34)))
(assert (not (= x32 x35)))
(assert (not (= x32 x36)))
(assert (not (= x32 (_ bv1 8))))
(assert (not (= x32 x38)))
(assert (not (= (_ bv2 8) x34)))
(assert (not (= (_ bv2 8) x35)))
(assert (not (= (_ bv2 8) x36)))
(assert (not (= (_ bv2 8) (_ bv1 8))))
(assert (not (= (_ bv2 8) x38)))
(assert (not (= x34 x35)))
(assert (not (= x34 x36)))
(assert (not (= x34 (_ bv1 8))))
(assert (not (= x34 x38)))
(assert (not (= x35 x36)))
(assert (not (= x35 (_ bv1 8))))
(assert (not (= x35 x38)))
(assert (not (= x36 (_ bv1 8))))
(assert (not (= x36 x38)))
(assert (not (= (_ bv1 8) x38)))
(assert (not (= x40 x41)))
(assert (not (= x40 x42)))
(assert (not (= x40 x43)))
(assert (not (= x40 (_ bv1 8))))
(assert (not (= x40 (_ bv6 8))))
(assert (not (= x40 (_ bv7 8))))
(assert (not (= x40 x47)))
(assert (not (= x40 (_ bv2 8))))
(assert (not (= x41 x42)))
(assert (not (= x41 x43)))
(assert (not (= x41 (_ bv1 8))))
(assert (not (= x41 (_ bv6 8))))
(assert (not (= x41 (_ bv7 8))))
(assert (not (= x41 x47)))
(assert (not (= x41 (_ bv2 8))))
(assert (not (= x42 x43)))
(assert (not (= x42 (_ bv1 8))))
(assert (not (= x42 (_ bv6 8))))
(assert (not (= x42 (_ bv7 8))))
(assert (not (= x42 x47)))
(assert (not (= x42 (_ bv2 8))))
(assert (not (= x43 (_ bv1 8))))
(assert (not (= x43 (_ bv6 8))))
(assert (not (= x43 (_ bv7 8))))
(assert (not (= x43 x47)))
(assert (not (= x43 (_ bv2 8))))
(assert (not (= (_ bv1 8) (_ bv6 8))))
(assert (not (= (_ bv1 8) (_ bv7 8))))
(assert (not (= (_ bv1 8) x47)))
(assert (not (= (_ bv1 8) (_ bv2 8))))
(assert (not (= (_ bv6 8) (_ bv7 8))))
(assert (not (= (_ bv6 8) x47)))
(assert (not (= (_ bv6 8) (_ bv2 8))))
(assert (not (= (_ bv7 8) x47)))
(assert (not (= (_ bv7 8) (_ bv2 8))))
(assert (not (= x47 (_ bv2 8))))
(assert (not (= x50 (_ bv7 8))))
(assert (not (= x50 x52)))
(assert (not (= x50 x53)))
(assert (not (= x50 x54)))
(assert (not (= x50 (_ bv3 8))))
(assert (not (= x50 x56)))
(assert (not (= x50 x57)))
(assert (not (= x50 x58)))
(assert (not (= (_ bv7 8) x52)))
(assert (not (= (_ bv7 8) x53)))
(assert (not (= (_ bv7 8) x54)))
(assert (not (= (_ bv7 8) (_ bv3 8))))
(assert (not (= (_ bv7 8) x56)))
(assert (not (= (_ bv7 8) x57)))
(assert (not (= (_ bv7 8) x58)))
(assert (not (= x52 x53)))
(assert (not (= x52 x54)))
(assert (not (= x52 (_ bv3 8))))
(assert (not (= x52 x56)))
(assert (not (= x52 x57)))
(assert (not (= x52 x58)))
(assert (not (= x53 x54)))
(assert (not (= x53 (_ bv3 8))))
(assert (not (= x53 x56)))
(assert (not (= x53 x57)))
(assert (not (= x53 x58)))
(assert (not (= x54 (_ bv3 8))))
(assert (not (= x54 x56)))
(assert (not (= x54 x57)))
(assert (not (= x54 x58)))
(assert (not (= (_ bv3 8) x56)))
(assert (not (= (_ bv3 8) x57)))
(assert (not (= (_ bv3 8) x58)))
(assert (not (= x56 x57)))
(assert (not (= x56 x58)))
(assert (not (= x57 x58)))
(assert (not (= x60 (_ bv6 8))))
(assert (not (= x60 (_ bv8 8))))
(assert (not (= x60 (_ bv9 8))))
(assert (not (= x60 x64)))
(assert (not (= x60 x65)))
(assert (not (= x60 x66)))
(assert (not (= x60 x67)))
(assert (not (= x60 x68)))
(assert (not (= (_ bv6 8) (_ bv8 8))))
(assert (not (= (_ bv6 8) (_ bv9 8))))
(assert (not (= (_ bv6 8) x64)))
(assert (not (= (_ bv6 8) x65)))
(assert (not (= (_ bv6 8) x66)))
(assert (not (= (_ bv6 8) x67)))
(assert (not (= (_ bv6 8) x68)))
(assert (not (= (_ bv8 8) (_ bv9 8))))
(assert (not (= (_ bv8 8) x64)))
(assert (not (= (_ bv8 8) x65)))
(assert (not (= (_ bv8 8) x66)))
(assert (not (= (_ bv8 8) x67)))
(assert (not (= (_ bv8 8) x68)))
(assert (not (= (_ bv9 8) x64)))
(assert (not (= (_ bv9 8) x65)))
(assert (not (= (_ bv9 8) x66)))
(assert (not (= (_ bv9 8) x67)))
(assert (not (= (_ bv9 8) x68)))
(assert (not (= x64 x65)))
(assert (not (= x64 x66)))
(assert (not (= x64 x67)))
(assert (not (= x64 x68)))
(assert (not (= x65 x66)))
(assert (not (= x65 x67)))
(assert (not (= x65 x68)))
(assert (not (= x66 x67)))
(assert (not (= x66 x68)))
(assert (not (= x67 x68)))
(assert (not (= x70 x71)))
(assert (not (= x70 (_ bv2 8))))
(assert (not (= x70 (_ bv5 8))))
(assert (not (= x70 x74)))
(assert (not (= x70 x75)))
(assert (not (= x70 (_ bv6 8))))
(assert (not (= x70 x77)))
(assert (not (= x70 x78)))
(assert (not (= x71 (_ bv2 8))))
(assert (not (= x71 (_ bv5 8))))
(assert (not (= x71 x74)))
(assert (not (= x71 x75)))
(assert (not (= x71 (_ bv6 8))))
(assert (not (= x71 x77)))
(assert (not (= x71 x78)))
(assert (not (= (_ bv2 8) (_ bv5 8))))
(assert (not (= (_ bv2 8) x74)))
(assert (not (= (_ bv2 8) x75)))
(assert (not (= (_ bv2 8) (_ bv6 8))))
(assert (not (= (_ bv2 8) x77)))
(assert (not (= (_ bv2 8) x78)))
(assert (not (= (_ bv5 8) x74)))
(assert (not (= (_ bv5 8) x75)))
(assert (not (= (_ bv5 8) (_ bv6 8))))
(assert (not (= (_ bv5 8) x77)))
(assert (not (= (_ bv5 8) x78)))
(assert (not (= x74 x75)))
(assert (not (= x74 (_ bv6 8))))
(assert (not (= x74 x77)))
(assert (not (= x74 x78)))
(assert (not (= x75 (_ bv6 8))))
(assert (not (= x75 x77)))
(assert (not (= x75 x78)))
(assert (not (= (_ bv6 8) x77)))
(assert (not (= (_ bv6 8) x78)))
(assert (not (= x77 x78)))
(assert (not (= (_ bv3 8) x81)))
(assert (not (= (_ bv3 8) x82)))
(assert (not (= (_ bv3 8) x83)))
(assert (not (= (_ bv3 8) x84)))
(assert (not (= (_ bv3 8) x85)))
(assert (not (= (_ bv3 8) x86)))
(assert (not (= (_ bv3 8) x87)))
(assert (not (= (_ bv3 8) (_ bv7 8))))
(assert (not (= x81 x82)))
(assert (not (= x81 x83)))
(assert (not (= x81 x84)))
(assert (not (= x81 x85)))
(assert (not (= x81 x86)))
(assert (not (= x81 x87)))
(assert (not (= x81 (_ bv7 8))))
(assert (not (= x82 x83)))
(assert (not (= x82 x84)))
(assert (not (= x82 x85)))
(assert (not (= x82 x86)))
(assert (not (= x82 x87)))
(assert (not (= x82 (_ bv7 8))))
(assert (not (= x83 x84)))
(assert (not (= x83 x85)))
(assert (not (= x83 x86)))
(assert (not (= x83 x87)))
(assert (not (= x83 (_ bv7 8))))
(assert (not (= x84 x85)))
(assert (not (= x84 x86)))
(assert (not (= x84 x87)))
(assert (not (= x84 (_ bv7 8))))
(assert (not (= x85 x86)))
(assert (not (= x85 x87)))
(assert (not (= x85 (_ bv7 8))))
(assert (not (= x86 x87)))
(assert (not (= x86 (_ bv7 8))))
(assert (not (= x87 (_ bv7 8))))
(assert (not (= (_ bv4 8) x10)))
(assert (not (= (_ bv4 8) x20)))
(assert (not (= (_ bv4 8) x30)))
(assert (not (= (_ bv4 8) x40)))
(assert (not (= (_ bv4 8) x50)))
(assert (not (= (_ bv4 8) x60)))
(assert (not (= (_ bv4 8) x70)))
(assert (not (= (_ bv4 8) (_ bv3 8))))
(assert (not (= x10 x20)))
(assert (not (= x10 x30)))
(assert (not (= x10 x40)))
(assert (not (= x10 x50)))
(assert (not (= x10 x60)))
(assert (not (= x10 x70)))
(assert (not (= x10 (_ bv3 8))))
(assert (not (= x20 x30)))
(assert (not (= x20 x40)))
(assert (not (= x20 x50)))
(assert (not (= x20 x60)))
(assert (not (= x20 x70)))
(assert (not (= x20 (_ bv3 8))))
(assert (not (= x30 x40)))
(assert (not (= x30 x50)))
(assert (not (= x30 x60)))
(assert (not (= x30 x70)))
(assert (not (= x30 (_ bv3 8))))
(assert (not (= x40 x50)))
(assert (not (= x40 x60)))
(assert (not (= x40 x70)))
(assert (not (= x40 (_ bv3 8))))
(assert (not (= x50 x60)))
(assert (not (= x50 x70)))
(assert (not (= x50 (_ bv3 8))))
(assert (not (= x60 x70)))
(assert (not (= x60 (_ bv3 8))))
(assert (not (= x70 (_ bv3 8))))
(assert (not (= (_ bv9 8) x11)))
(assert (not (= (_ bv9 8) x21)))
(assert (not (= (_ bv9 8) x31)))
(assert (not (= (_ bv9 8) x41)))
(assert (not (= (_ bv9 8) (_ bv7 8))))
(assert (not (= (_ bv9 8) (_ bv6 8))))
(assert (not (= (_ bv9 8) x71)))
(assert (not (= (_ bv9 8) x81)))
(assert (not (= x11 x21)))
(assert (not (= x11 x31)))
(assert (not (= x11 x41)))
(assert (not (= x11 (_ bv7 8))))
(assert (not (= x11 (_ bv6 8))))
(assert (not (= x11 x71)))
(assert (not (= x11 x81)))
(assert (not (= x21 x31)))
(assert (not (= x21 x41)))
(assert (not (= x21 (_ bv7 8))))
(assert (not (= x21 (_ bv6 8))))
(assert (not (= x21 x71)))
(assert (not (= x21 x81)))
(assert (not (= x31 x41)))
(assert (not (= x31 (_ bv7 8))))
(assert (not (= x31 (_ bv6 8))))
(assert (not (= x31 x71)))
(assert (not (= x31 x81)))
(assert (not (= x41 (_ bv7 8))))
(assert (not (= x41 (_ bv6 8))))
(assert (not (= x41 x71)))
(assert (not (= x41 x81)))
(assert (not (= (_ bv7 8) (_ bv6 8))))
(assert (not (= (_ bv7 8) x71)))
(assert (not (= (_ bv7 8) x81)))
(assert (not (= (_ bv6 8) x71)))
(assert (not (= (_ bv6 8) x81)))
(assert (not (= x71 x81)))
(assert (not (= x02 x12)))
(assert (not (= x02 x22)))
(assert (not (= x02 x32)))
(assert (not (= x02 x42)))
(assert (not (= x02 x52)))
(assert (not (= x02 (_ bv8 8))))
(assert (not (= x02 (_ bv2 8))))
(assert (not (= x02 x82)))
(assert (not (= x12 x22)))
(assert (not (= x12 x32)))
(assert (not (= x12 x42)))
(assert (not (= x12 x52)))
(assert (not (= x12 (_ bv8 8))))
(assert (not (= x12 (_ bv2 8))))
(assert (not (= x12 x82)))
(assert (not (= x22 x32)))
(assert (not (= x22 x42)))
(assert (not (= x22 x52)))
(assert (not (= x22 (_ bv8 8))))
(assert (not (= x22 (_ bv2 8))))
(assert (not (= x22 x82)))
(assert (not (= x32 x42)))
(assert (not (= x32 x52)))
(assert (not (= x32 (_ bv8 8))))
(assert (not (= x32 (_ bv2 8))))
(assert (not (= x32 x82)))
(assert (not (= x42 x52)))
(assert (not (= x42 (_ bv8 8))))
(assert (not (= x42 (_ bv2 8))))
(assert (not (= x42 x82)))
(assert (not (= x52 (_ bv8 8))))
(assert (not (= x52 (_ bv2 8))))
(assert (not (= x52 x82)))
(assert (not (= (_ bv8 8) (_ bv2 8))))
(assert (not (= (_ bv8 8) x82)))
(assert (not (= (_ bv2 8) x82)))
(assert (not (= (_ bv6 8) x13)))
(assert (not (= (_ bv6 8) x23)))
(assert (not (= (_ bv6 8) (_ bv2 8))))
(assert (not (= (_ bv6 8) x43)))
(assert (not (= (_ bv6 8) x53)))
(assert (not (= (_ bv6 8) (_ bv9 8))))
(assert (not (= (_ bv6 8) (_ bv5 8))))
(assert (not (= (_ bv6 8) x83)))
(assert (not (= x13 x23)))
(assert (not (= x13 (_ bv2 8))))
(assert (not (= x13 x43)))
(assert (not (= x13 x53)))
(assert (not (= x13 (_ bv9 8))))
(assert (not (= x13 (_ bv5 8))))
(assert (not (= x13 x83)))
(assert (not (= x23 (_ bv2 8))))
(assert (not (= x23 x43)))
(assert (not (= x23 x53)))
(assert (not (= x23 (_ bv9 8))))
(assert (not (= x23 (_ bv5 8))))
(assert (not (= x23 x83)))
(assert (not (= (_ bv2 8) x43)))
(assert (not (= (_ bv2 8) x53)))
(assert (not (= (_ bv2 8) (_ bv9 8))))
(assert (not (= (_ bv2 8) (_ bv5 8))))
(assert (not (= (_ bv2 8) x83)))
(assert (not (= x43 x53)))
(assert (not (= x43 (_ bv9 8))))
(assert (not (= x43 (_ bv5 8))))
(assert (not (= x43 x83)))
(assert (not (= x53 (_ bv9 8))))
(assert (not (= x53 (_ bv5 8))))
(assert (not (= x53 x83)))
(assert (not (= (_ bv9 8) (_ bv5 8))))
(assert (not (= (_ bv9 8) x83)))
(assert (not (= (_ bv5 8) x83)))
(assert (not (= x04 x14)))
(assert (not (= x04 x24)))
(assert (not (= x04 x34)))
(assert (not (= x04 (_ bv1 8))))
(assert (not (= x04 x54)))
(assert (not (= x04 x64)))
(assert (not (= x04 x74)))
(assert (not (= x04 x84)))
(assert (not (= x14 x24)))
(assert (not (= x14 x34)))
(assert (not (= x14 (_ bv1 8))))
(assert (not (= x14 x54)))
(assert (not (= x14 x64)))
(assert (not (= x14 x74)))
(assert (not (= x14 x84)))
(assert (not (= x24 x34)))
(assert (not (= x24 (_ bv1 8))))
(assert (not (= x24 x54)))
(assert (not (= x24 x64)))
(assert (not (= x24 x74)))
(assert (not (= x24 x84)))
(assert (not (= x34 (_ bv1 8))))
(assert (not (= x34 x54)))
(assert (not (= x34 x64)))
(assert (not (= x34 x74)))
(assert (not (= x34 x84)))
(assert (not (= (_ bv1 8) x54)))
(assert (not (= (_ bv1 8) x64)))
(assert (not (= (_ bv1 8) x74)))
(assert (not (= (_ bv1 8) x84)))
(assert (not (= x54 x64)))
(assert (not (= x54 x74)))
(assert (not (= x54 x84)))
(assert (not (= x64 x74)))
(assert (not (= x64 x84)))
(assert (not (= x74 x84)))
(assert (not (= x05 (_ bv4 8))))
(assert (not (= x05 x25)))
(assert (not (= x05 x35)))
(assert (not (= x05 (_ bv6 8))))
(assert (not (= x05 (_ bv3 8))))
(assert (not (= x05 x65)))
(assert (not (= x05 x75)))
(assert (not (= x05 x85)))
(assert (not (= (_ bv4 8) x25)))
(assert (not (= (_ bv4 8) x35)))
(assert (not (= (_ bv4 8) (_ bv6 8))))
(assert (not (= (_ bv4 8) (_ bv3 8))))
(assert (not (= (_ bv4 8) x65)))
(assert (not (= (_ bv4 8) x75)))
(assert (not (= (_ bv4 8) x85)))
(assert (not (= x25 x35)))
(assert (not (= x25 (_ bv6 8))))
(assert (not (= x25 (_ bv3 8))))
(assert (not (= x25 x65)))
(assert (not (= x25 x75)))
(assert (not (= x25 x85)))
(assert (not (= x35 (_ bv6 8))))
(assert (not (= x35 (_ bv3 8))))
(assert (not (= x35 x65)))
(assert (not (= x35 x75)))
(assert (not (= x35 x85)))
(assert (not (= (_ bv6 8) (_ bv3 8))))
(assert (not (= (_ bv6 8) x65)))
(assert (not (= (_ bv6 8) x75)))
(assert (not (= (_ bv6 8) x85)))
(assert (not (= (_ bv3 8) x65)))
(assert (not (= (_ bv3 8) x75)))
(assert (not (= (_ bv3 8) x85)))
(assert (not (= x65 x75)))
(assert (not (= x65 x85)))
(assert (not (= x75 x85)))
(assert (not (= x06 x16)))
(assert (not (= x06 x26)))
(assert (not (= x06 x36)))
(assert (not (= x06 (_ bv7 8))))
(assert (not (= x06 x56)))
(assert (not (= x06 x66)))
(assert (not (= x06 (_ bv6 8))))
(assert (not (= x06 x86)))
(assert (not (= x16 x26)))
(assert (not (= x16 x36)))
(assert (not (= x16 (_ bv7 8))))
(assert (not (= x16 x56)))
(assert (not (= x16 x66)))
(assert (not (= x16 (_ bv6 8))))
(assert (not (= x16 x86)))
(assert (not (= x26 x36)))
(assert (not (= x26 (_ bv7 8))))
(assert (not (= x26 x56)))
(assert (not (= x26 x66)))
(assert (not (= x26 (_ bv6 8))))
(assert (not (= x26 x86)))
(assert (not (= x36 (_ bv7 8))))
(assert (not (= x36 x56)))
(assert (not (= x36 x66)))
(assert (not (= x36 (_ bv6 8))))
(assert (not (= x36 x86)))
(assert (not (= (_ bv7 8) x56)))
(assert (not (= (_ bv7 8) x66)))
(assert (not (= (_ bv7 8) (_ bv6 8))))
(assert (not (= (_ bv7 8) x86)))
(assert (not (= x56 x66)))
(assert (not (= x56 (_ bv6 8))))
(assert (not (= x56 x86)))
(assert (not (= x66 (_ bv6 8))))
(assert (not (= x66 x86)))
(assert (not (= (_ bv6 8) x86)))
(assert (not (= x07 (_ bv8 8))))
(assert (not (= x07 (_ bv5 8))))
(assert (not (= x07 (_ bv1 8))))
(assert (not (= x07 x47)))
(assert (not (= x07 x57)))
(assert (not (= x07 x67)))
(assert (not (= x07 x77)))
(assert (not (= x07 x87)))
(assert (not (= (_ bv8 8) (_ bv5 8))))
(assert (not (= (_ bv8 8) (_ bv1 8))))
(assert (not (= (_ bv8 8) x47)))
(assert (not (= (_ bv8 8) x57)))
(assert (not (= (_ bv8 8) x67)))
(assert (not (= (_ bv8 8) x77)))
(assert (not (= (_ bv8 8) x87)))
(assert (not (= (_ bv5 8) (_ bv1 8))))
(assert (not (= (_ bv5 8) x47)))
(assert (not (= (_ bv5 8) x57)))
(assert (not (= (_ bv5 8) x67)))
(assert (not (= (_ bv5 8) x77)))
(assert (not (= (_ bv5 8) x87)))
(assert (not (= (_ bv1 8) x47)))
(assert (not (= (_ bv1 8) x57)))
(assert (not (= (_ bv1 8) x67)))
(assert (not (= (_ bv1 8) x77)))
(assert (not (= (_ bv1 8) x87)))
(assert (not (= x47 x57)))
(assert (not (= x47 x67)))
(assert (not (= x47 x77)))
(assert (not (= x47 x87)))
(assert (not (= x57 x67)))
(assert (not (= x57 x77)))
(assert (not (= x57 x87)))
(assert (not (= x67 x77)))
(assert (not (= x67 x87)))
(assert (not (= x77 x87)))
(assert (not (= x08 x18)))
(assert (not (= x08 x28)))
(assert (not (= x08 x38)))
(assert (not (= x08 (_ bv2 8))))
(assert (not (= x08 x58)))
(assert (not (= x08 x68)))
(assert (not (= x08 x78)))
(assert (not (= x08 (_ bv7 8))))
(assert (not (= x18 x28)))
(assert (not (= x18 x38)))
(assert (not (= x18 (_ bv2 8))))
(assert (not (= x18 x58)))
(assert (not (= x18 x68)))
(assert (not (= x18 x78)))
(assert (not (= x18 (_ bv7 8))))
(assert (not (= x28 x38)))
(assert (not (= x28 (_ bv2 8))))
(assert (not (= x28 x58)))
(assert (not (= x28 x68)))
(assert (not (= x28 x78)))
(assert (not (= x28 (_ bv7 8))))
(assert (not (= x38 (_ bv2 8))))
(assert (not (= x38 x58)))
(assert (not (= x38 x68)))
(assert (not (= x38 x78)))
(assert (not (= x38 (_ bv7 8))))
(assert (not (= (_ bv2 8) x58)))
(assert (not (= (_ bv2 8) x68)))
(assert (not (= (_ bv2 8) x78)))
(assert (not (= (_ bv2 8) (_ bv7 8))))
(assert (not (= x58 x68)))
(assert (not (= x58 x78)))
(assert (not (= x58 (_ bv7 8))))
(assert (not (= x68 x78)))
(assert (not (= x68 (_ bv7 8))))
(assert (not (= x78 (_ bv7 8))))
(assert (not (= (_ bv4 8) (_ bv9 8))))
(assert (not (= (_ bv4 8) x02)))
(assert (not (= (_ bv4 8) x10)))
(assert (not (= (_ bv4 8) x11)))
(assert (not (= (_ bv4 8) x12)))
(assert (not (= (_ bv4 8) x20)))
(assert (not (= (_ bv4 8) x21)))
(assert (not (= (_ bv4 8) x22)))
(assert (not (= (_ bv9 8) x02)))
(assert (not (= (_ bv9 8) x10)))
(assert (not (= (_ bv9 8) x11)))
(assert (not (= (_ bv9 8) x12)))
(assert (not (= (_ bv9 8) x20)))
(assert (not (= (_ bv9 8) x21)))
(assert (not (= (_ bv9 8) x22)))
(assert (not (= x02 x10)))
(assert (not (= x02 x11)))
(assert (not (= x02 x12)))
(assert (not (= x02 x20)))
(assert (not (= x02 x21)))
(assert (not (= x02 x22)))
(assert (not (= x10 x11)))
(assert (not (= x10 x12)))
(assert (not (= x10 x20)))
(assert (not (= x10 x21)))
(assert (not (= x10 x22)))
(assert (not (= x11 x12)))
(assert (not (= x11 x20)))
(assert (not (= x11 x21)))
(assert (not (= x11 x22)))
(assert (not (= x12 x20)))
(assert (not (= x12 x21)))
(assert (not (= x12 x22)))
(assert (not (= x20 x21)))
(assert (not (= x20 x22)))
(assert (not (= x21 x22)))
(assert (not (= (_ bv6 8) x04)))
(assert (not (= (_ bv6 8) x05)))
(assert (not (= (_ bv6 8) x13)))
(assert (not (= (_ bv6 8) x14)))
(assert (not (= (_ bv6 8) (_ bv4 8))))
(assert (not (= (_ bv6 8) x23)))
(assert (not (= (_ bv6 8) x24)))
(assert (not (= (_ bv6 8) x25)))
(assert (not (= x04 x05)))
(assert (not (= x04 x13)))
(assert (not (= x04 x14)))
(assert (not (= x04 (_ bv4 8))))
(assert (not (= x04 x23)))
(assert (not (= x04 x24)))
(assert (not (= x04 x25)))
(assert (not (= x05 x13)))
(assert (not (= x05 x14)))
(assert (not (= x05 (_ bv4 8))))
(assert (not (= x05 x23)))
(assert (not (= x05 x24)))
(assert (not (= x05 x25)))
(assert (not (= x13 x14)))
(assert (not (= x13 (_ bv4 8))))
(assert (not (= x13 x23)))
(assert (not (= x13 x24)))
(assert (not (= x13 x25)))
(assert (not (= x14 (_ bv4 8))))
(assert (not (= x14 x23)))
(assert (not (= x14 x24)))
(assert (not (= x14 x25)))
(assert (not (= (_ bv4 8) x23)))
(assert (not (= (_ bv4 8) x24)))
(assert (not (= (_ bv4 8) x25)))
(assert (not (= x23 x24)))
(assert (not (= x23 x25)))
(assert (not (= x24 x25)))
(assert (not (= x06 x07)))
(assert (not (= x06 x08)))
(assert (not (= x06 x16)))
(assert (not (= x06 (_ bv8 8))))
(assert (not (= x06 x18)))
(assert (not (= x06 x26)))
(assert (not (= x06 (_ bv5 8))))
(assert (not (= x06 x28)))
(assert (not (= x07 x08)))
(assert (not (= x07 x16)))
(assert (not (= x07 (_ bv8 8))))
(assert (not (= x07 x18)))
(assert (not (= x07 x26)))
(assert (not (= x07 (_ bv5 8))))
(assert (not (= x07 x28)))
(assert (not (= x08 x16)))
(assert (not (= x08 (_ bv8 8))))
(assert (not (= x08 x18)))
(assert (not (= x08 x26)))
(assert (not (= x08 (_ bv5 8))))
(assert (not (= x08 x28)))
(assert (not (= x16 (_ bv8 8))))
(assert (not (= x16 x18)))
(assert (not (= x16 x26)))
(assert (not (= x16 (_ bv5 8))))
(assert (not (= x16 x28)))
(assert (not (= (_ bv8 8) x18)))
(assert (not (= (_ bv8 8) x26)))
(assert (not (= (_ bv8 8) (_ bv5 8))))
(assert (not (= (_ bv8 8) x28)))
(assert (not (= x18 x26)))
(assert (not (= x18 (_ bv5 8))))
(assert (not (= x18 x28)))
(assert (not (= x26 (_ bv5 8))))
(assert (not (= x26 x28)))
(assert (not (= (_ bv5 8) x28)))
(assert (not (= x30 x31)))
(assert (not (= x30 x32)))
(assert (not (= x30 x40)))
(assert (not (= x30 x41)))
(assert (not (= x30 x42)))
(assert (not (= x30 x50)))
(assert (not (= x30 (_ bv7 8))))
(assert (not (= x30 x52)))
(assert (not (= x31 x32)))
(assert (not (= x31 x40)))
(assert (not (= x31 x41)))
(assert (not (= x31 x42)))
(assert (not (= x31 x50)))
(assert (not (= x31 (_ bv7 8))))
(assert (not (= x31 x52)))
(assert (not (= x32 x40)))
(assert (not (= x32 x41)))
(assert (not (= x32 x42)))
(assert (not (= x32 x50)))
(assert (not (= x32 (_ bv7 8))))
(assert (not (= x32 x52)))
(assert (not (= x40 x41)))
(assert (not (= x40 x42)))
(assert (not (= x40 x50)))
(assert (not (= x40 (_ bv7 8))))
(assert (not (= x40 x52)))
(assert (not (= x41 x42)))
(assert (not (= x41 x50)))
(assert (not (= x41 (_ bv7 8))))
(assert (not (= x41 x52)))
(assert (not (= x42 x50)))
(assert (not (= x42 (_ bv7 8))))
(assert (not (= x42 x52)))
(assert (not (= x50 (_ bv7 8))))
(assert (not (= x50 x52)))
(assert (not (= (_ bv7 8) x52)))
(assert (not (= (_ bv2 8) x34)))
(assert (not (= (_ bv2 8) x35)))
(assert (not (= (_ bv2 8) x43)))
(assert (not (= (_ bv2 8) (_ bv1 8))))
(assert (not (= (_ bv2 8) (_ bv6 8))))
(assert (not (= (_ bv2 8) x53)))
(assert (not (= (_ bv2 8) x54)))
(assert (not (= (_ bv2 8) (_ bv3 8))))
(assert (not (= x34 x35)))
(assert (not (= x34 x43)))
(assert (not (= x34 (_ bv1 8))))
(assert (not (= x34 (_ bv6 8))))
(assert (not (= x34 x53)))
(assert (not (= x34 x54)))
(assert (not (= x34 (_ bv3 8))))
(assert (not (= x35 x43)))
(assert (not (= x35 (_ bv1 8))))
(assert (not (= x35 (_ bv6 8))))
(assert (not (= x35 x53)))
(assert (not (= x35 x54)))
(assert (not (= x35 (_ bv3 8))))
(assert (not (= x43 (_ bv1 8))))
(assert (not (= x43 (_ bv6 8))))
(assert (not (= x43 x53)))
(assert (not (= x43 x54)))
(assert (not (= x43 (_ bv3 8))))
(assert (not (= (_ bv1 8) (_ bv6 8))))
(assert (not (= (_ bv1 8) x53)))
(assert (not (= (_ bv1 8) x54)))
(assert (not (= (_ bv1 8) (_ bv3 8))))
(assert (not (= (_ bv6 8) x53)))
(assert (not (= (_ bv6 8) x54)))
(assert (not (= (_ bv6 8) (_ bv3 8))))
(assert (not (= x53 x54)))
(assert (not (= x53 (_ bv3 8))))
(assert (not (= x54 (_ bv3 8))))
(assert (not (= x36 (_ bv1 8))))
(assert (not (= x36 x38)))
(assert (not (= x36 (_ bv7 8))))
(assert (not (= x36 x47)))
(assert (not (= x36 (_ bv2 8))))
(assert (not (= x36 x56)))
(assert (not (= x36 x57)))
(assert (not (= x36 x58)))
(assert (not (= (_ bv1 8) x38)))
(assert (not (= (_ bv1 8) (_ bv7 8))))
(assert (not (= (_ bv1 8) x47)))
(assert (not (= (_ bv1 8) (_ bv2 8))))
(assert (not (= (_ bv1 8) x56)))
(assert (not (= (_ bv1 8) x57)))
(assert (not (= (_ bv1 8) x58)))
(assert (not (= x38 (_ bv7 8))))
(assert (not (= x38 x47)))
(assert (not (= x38 (_ bv2 8))))
(assert (not (= x38 x56)))
(assert (not (= x38 x57)))
(assert (not (= x38 x58)))
(assert (not (= (_ bv7 8) x47)))
(assert (not (= (_ bv7 8) (_ bv2 8))))
(assert (not (= (_ bv7 8) x56)))
(assert (not (= (_ bv7 8) x57)))
(assert (not (= (_ bv7 8) x58)))
(assert (not (= x47 (_ bv2 8))))
(assert (not (= x47 x56)))
(assert (not (= x47 x57)))
(assert (not (= x47 x58)))
(assert (not (= (_ bv2 8) x56)))
(assert (not (= (_ bv2 8) x57)))
(assert (not (= (_ bv2 8) x58)))
(assert (not (= x56 x57)))
(assert (not (= x56 x58)))
(assert (not (= x57 x58)))
(assert (not (= x60 (_ bv6 8))))
(assert (not (= x60 (_ bv8 8))))
(assert (not (= x60 x70)))
(assert (not (= x60 x71)))
(assert (not (= x60 (_ bv2 8))))
(assert (not (= x60 (_ bv3 8))))
(assert (not (= x60 x81)))
(assert (not (= x60 x82)))
(assert (not (= (_ bv6 8) (_ bv8 8))))
(assert (not (= (_ bv6 8) x70)))
(assert (not (= (_ bv6 8) x71)))
(assert (not (= (_ bv6 8) (_ bv2 8))))
(assert (not (= (_ bv6 8) (_ bv3 8))))
(assert (not (= (_ bv6 8) x81)))
(assert (not (= (_ bv6 8) x82)))
(assert (not (= (_ bv8 8) x70)))
(assert (not (= (_ bv8 8) x71)))
(assert (not (= (_ bv8 8) (_ bv2 8))))
(assert (not (= (_ bv8 8) (_ bv3 8))))
(assert (not (= (_ bv8 8) x81)))
(assert (not (= (_ bv8 8) x82)))
(assert (not (= x70 x71)))
(assert (not (= x70 (_ bv2 8))))
(assert (not (= x70 (_ bv3 8))))
(assert (not (= x70 x81)))
(assert (not (= x70 x82)))
(assert (not (= x71 (_ bv2 8))))
(assert (not (= x71 (_ bv3 8))))
(assert (not (= x71 x81)))
(assert (not (= x71 x82)))
(assert (not (= (_ bv2 8) (_ bv3 8))))
(assert (not (= (_ bv2 8) x81)))
(assert (not (= (_ bv2 8) x82)))
(assert (not (= (_ bv3 8) x81)))
(assert (not (= (_ bv3 8) x82)))
(assert (not (= x81 x82)))
(assert (not (= (_ bv9 8) x64)))
(assert (not (= (_ bv9 8) x65)))
(assert (not (= (_ bv9 8) (_ bv5 8))))
(assert (not (= (_ bv9 8) x74)))
(assert (not (= (_ bv9 8) x75)))
(assert (not (= (_ bv9 8) x83)))
(assert (not (= (_ bv9 8) x84)))
(assert (not (= (_ bv9 8) x85)))
(assert (not (= x64 x65)))
(assert (not (= x64 (_ bv5 8))))
(assert (not (= x64 x74)))
(assert (not (= x64 x75)))
(assert (not (= x64 x83)))
(assert (not (= x64 x84)))
(assert (not (= x64 x85)))
(assert (not (= x65 (_ bv5 8))))
(assert (not (= x65 x74)))
(assert (not (= x65 x75)))
(assert (not (= x65 x83)))
(assert (not (= x65 x84)))
(assert (not (= x65 x85)))
(assert (not (= (_ bv5 8) x74)))
(assert (not (= (_ bv5 8) x75)))
(assert (not (= (_ bv5 8) x83)))
(assert (not (= (_ bv5 8) x84)))
(assert (not (= (_ bv5 8) x85)))
(assert (not (= x74 x75)))
(assert (not (= x74 x83)))
(assert (not (= x74 x84)))
(assert (not (= x74 x85)))
(assert (not (= x75 x83)))
(assert (not (= x75 x84)))
(assert (not (= x75 x85)))
(assert (not (= x83 x84)))
(assert (not (= x83 x85)))
(assert (not (= x84 x85)))
(assert (not (= x66 x67)))
(assert (not (= x66 x68)))
(assert (not (= x66 (_ bv6 8))))
(assert (not (= x66 x77)))
(assert (not (= x66 x78)))
(assert (not (= x66 x86)))
(assert (not (= x66 x87)))
(assert (not (= x66 (_ bv7 8))))
(assert (not (= x67 x68)))
(assert (not (= x67 (_ bv6 8))))
(assert (not (= x67 x77)))
(assert (not (= x67 x78)))
(assert (not (= x67 x86)))
(assert (not (= x67 x87)))
(assert (not (= x67 (_ bv7 8))))
(assert (not (= x68 (_ bv6 8))))
(assert (not (= x68 x77)))
(assert (not (= x68 x78)))
(assert (not (= x68 x86)))
(assert (not (= x68 x87)))
(assert (not (= x68 (_ bv7 8))))
(assert (not (= (_ bv6 8) x77)))
(assert (not (= (_ bv6 8) x78)))
(assert (not (= (_ bv6 8) x86)))
(assert (not (= (_ bv6 8) x87)))
(assert (not (= (_ bv6 8) (_ bv7 8))))
(assert (not (= x77 x78)))
(assert (not (= x77 x86)))
(assert (not (= x77 x87)))
(assert (not (= x77 (_ bv7 8))))
(assert (not (= x78 x86)))
(assert (not (= x78 x87)))
(assert (not (= x78 (_ bv7 8))))
(assert (not (= x86 x87)))
(assert (not (= x86 (_ bv7 8))))
(assert (not (= x87 (_ bv7 8))))
(check-sat)
(exit)
